\Problem name: 

Minimize
OBJROW: x_0 + x_1 + x_2 + x_3 + x_4 + x_5 + x_6
Subject To
constr(0):  x_0 + x_3 + x_4 + x_5 + x_6 >= 10
constr(1):  x_0 + x_1 + x_4 + x_5 + x_6 >= 6
constr(2):  x_0 + x_1 + x_2 + x_5 + x_6 >= 8
constr(3):  x_0 + x_1 + x_2 + x_3 + x_6 >= 5
constr(4):  x_0 + x_1 + x_2 + x_3 + x_4 >= 9
constr(5):  x_1 + x_2 + x_3 + x_4 + x_5 >= 4
constr(6):  x_2 + x_3 + x_4 + x_5 + x_6 >= 6
Bounds
Integers
x_0 x_1 x_2 x_3 x_4 x_5 x_6 
End
